g9 5 1 0 104 20081213 0 4 0 500	# problem tmp
 105 104 1 8 49	# vars, constraints, objectives, ranges, eqns
 28 0 47 0	# nonlinear constrs, objs; ccons: lin, nonlin
 0 0	# network constraints: nonlinear, linear
 37 0 0	# nonlinear vars in constraints, objectives, both
 0 0 0 1	# linear network variables; functions; arith, flags
 0 0 0 0 0	# discrete variables: binary, integer, nonlinear (b,c,o)
 461 24	# nonzeros in Jacobian, gradients
 0 0	# max name lengths: constraints, variables
 0 80 0 46 0	# common exprs: b,c,o,c1,o1
V105 1 0
0 0.25
n0.375
V106 1 0
0 0.5
n0.25
V107 1 0
0 0.75
n0.125
V108 1 0
1 0.25
n0.375
V109 1 0
1 0.5
n0.25
V110 1 0
1 0.75
n0.125
V111 1 0
1 1
n0
V112 1 0
2 0.25
n0.375
V113 1 0
2 0.5
n0.25
V114 1 0
2 0.75
n0.125
V115 1 0
2 1
n0
V116 1 0
3 0.25
n0.375
V117 1 0
3 0.5
n0.25
V118 1 0
3 0.75
n0.125
V119 1 0
3 1
n0
V120 1 0
4 0.25
n0.375
V121 1 0
4 0.5
n0.25
V122 1 0
4 0.75
n0.125
V123 1 0
4 1
n0
V124 1 0
5 0.25
n0.375
V125 1 0
5 0.5
n0.25
V126 1 0
5 0.75
n0.125
V127 1 0
5 1
n0
V128 1 0
6 0.25
n0.375
V129 1 0
6 0.5
n0.25
V130 1 0
6 0.75
n0.125
V131 1 0
6 1
n0
V132 1 0
7 0.25
n0.375
V133 1 0
7 0.5
n0.25
V134 1 0
7 0.75
n0.125
V135 1 0
8 0.25
n0.375
V136 1 0
8 0.5
n0.25
V137 1 0
1 0.03125
n-0.015625
V138 1 0
1 0.03125
n-0.015625
V139 1 0
1 0.03125
n-0.015625
V140 1 0
1 0.03125
n-0.015625
V141 1 0
2 0.03125
n-0.015625
V142 1 0
1 0.03125
n-0.015625
V143 1 0
2 0.03125
n-0.015625
V144 1 0
1 0.03125
n-0.015625
V145 1 0
2 0.03125
n-0.015625
V146 1 0
1 0.03125
n-0.015625
V147 1 0
2 0.03125
n-0.015625
V148 1 0
3 0.03125
n-0.015625
V149 1 0
2 0.03125
n-0.015625
V150 1 0
3 0.03125
n-0.015625
V151 1 0
2 0.03125
n-0.015625
V152 1 0
3 0.03125
n-0.015625
V153 1 0
2 0.03125
n-0.015625
V154 1 0
3 0.03125
n-0.015625
V155 1 0
4 0.03125
n-0.015625
V156 1 0
3 0.03125
n-0.015625
V157 1 0
4 0.03125
n-0.015625
V158 1 0
3 0.03125
n-0.015625
V159 1 0
4 0.03125
n-0.015625
V160 1 0
3 0.03125
n-0.015625
V161 1 0
4 0.03125
n-0.015625
V162 1 0
5 0.03125
n-0.015625
V163 1 0
4 0.03125
n-0.015625
V164 1 0
5 0.03125
n-0.015625
V165 1 0
4 0.03125
n-0.015625
V166 1 0
5 0.03125
n-0.015625
V167 1 0
4 0.03125
n-0.015625
V168 1 0
5 0.03125
n-0.015625
V169 1 0
6 0.03125
n-0.015625
V170 1 0
5 0.03125
n-0.015625
V171 1 0
6 0.03125
n-0.015625
V172 1 0
5 0.03125
n-0.015625
V173 1 0
6 0.03125
n-0.015625
V174 1 0
5 0.03125
n-0.015625
V175 1 0
6 0.03125
n-0.015625
V176 1 0
7 0.03125
n-0.015625
V177 1 0
6 0.03125
n-0.015625
V178 1 0
7 0.03125
n-0.015625
V179 1 0
6 0.03125
n-0.015625
V180 1 0
7 0.03125
n-0.015625
V181 1 0
6 0.03125
n-0.015625
V182 1 0
7 0.03125
n-0.015625
V183 1 0
7 0.03125
n-0.015625
V184 1 0
7 0.03125
n-0.015625
V185 1 1
0 0.03125
n-0.015625
V186 0 1
o54
3
o3
o54
3
o2
o0
n0.015625
o5
o0
n-0.5
v108
n2
v9
o2
n-0.015625
v10
o16
o2
o5
o0
n-0.5
v108
n2
v13
o2
n2
v140
o3
o0
o2
o0
n0.015625
o5
o1
v105
v108
n2
v9
o2
o54
3
n-0.015625
o16
o5
o1
v105
v108
n2
o2
o1
v105
v108
o1
n0.5
v108
v10
o2
n2
v137
o3
o2
o5
o0
n-0.5
v105
n2
v9
o2
n2
v185
C0
o16
v186
V187 1 2
0 0.03125
n-0.015625
V188 0 2
o54
6
o3
o0
o2
o1
o54
3
n0.015625
o5
o1
v105
v108
n2
o5
o1
n0.5
v108
n2
o2
o2
n2
o1
v105
v108
o1
n0.5
v108
v10
o2
o54
3
n-0.015625
o16
o5
o1
v105
v108
n2
o2
o1
v105
v108
o1
n0.5
v108
v9
o2
n2
v137
o3
o54
3
o2
o1
o54
3
n0.015625
o5
o1
v112
v108
n2
o5
o1
v109
v108
n2
o2
o2
n2
o1
v112
v108
o1
v109
v108
v10
o2
o54
3
n-0.015625
o16
o5
o1
v112
v108
n2
o2
o1
v112
v108
o1
v109
v108
v11
o2
o0
o16
o5
o1
v109
v108
n2
o2
o1
v112
v108
o1
v109
v108
v14
o2
n2
v142
o3
o0
o2
o0
n0.015625
o5
o1
v106
v109
n2
v10
o2
o54
3
n-0.015625
o16
o5
o1
v106
v109
n2
o2
o1
v106
v109
o1
v108
v109
v11
o2
n2
v138
o3
o0
o2
n0.015625
v10
o2
n-0.015625
v9
o2
n2
v140
o3
o2
o5
o1
v106
v105
n2
v10
o2
n2
v187
o3
o54
3
o2
o5
o1
n0.5
v112
n2
v10
o16
o2
o2
o1
v108
v112
o1
n0.5
v112
v13
o2
o0
o16
o5
o1
n0.5
v112
n2
o2
o1
v108
v112
o1
n0.5
v112
v14
o2
n2
v141
C1
o16
v188
V189 1 3
0 0.03125
n-0.015625
V190 0 3
o54
6
o3
o0
o2
o1
o54
3
n0.015625
o5
o1
v106
v109
n2
o5
o1
v108
v109
n2
o2
o2
n2
o1
v106
v109
o1
v108
v109
v11
o2
o54
3
n-0.015625
o16
o5
o1
v106
v109
n2
o2
o1
v106
v109
o1
v108
v109
v10
o2
n2
v138
o3
o54
3
o2
o1
o54
3
n0.015625
o5
o1
v113
v109
n2
o5
o1
v110
v109
n2
o2
o2
n2
o1
v113
v109
o1
v110
v109
v11
o2
o54
3
n-0.015625
o16
o5
o1
v113
v109
n2
o2
o1
v113
v109
o1
v110
v109
v12
o2
o0
o16
o5
o1
v110
v109
n2
o2
o1
v113
v109
o1
v110
v109
v15
o2
n2
v144
o3
o0
o2
o0
n0.015625
o5
o1
v107
v110
n2
v11
o2
o54
3
n-0.015625
o16
o5
o1
v107
v110
n2
o2
o1
v107
v110
o1
v109
v110
v12
o2
n2
v139
o3
o54
3
o2
o0
n0.015625
o5
o1
v112
v108
n2
v11
o2
o54
3
n-0.015625
o16
o5
o1
v112
v108
n2
o2
o1
v112
v108
o1
v109
v108
v10
o16
o2
o2
o1
v112
v108
o1
v109
v108
v14
o2
n2
v142
o3
o2
o5
o1
v107
v106
n2
v11
o2
n2
v189
o3
o54
3
o2
o5
o1
v112
v113
n2
v11
o16
o2
o2
o1
v109
v113
o1
v112
v113
v14
o2
o0
o16
o5
o1
v112
v113
n2
o2
o1
v109
v113
o1
v112
v113
v15
o2
n2
v143
C2
o16
v190
V191 1 4
0 1
n0
V192 1 4
0 0.03125
n-0.015625
V193 1 4
1 0.03125
n-0.015625
V194 0 4
o54
6
o3
o0
o2
o1
o54
3
n0.015625
o5
o1
v107
v110
n2
o5
o1
v109
v110
n2
o2
o2
n2
o1
v107
v110
o1
v109
v110
v12
o2
o54
3
n-0.015625
o16
o5
o1
v107
v110
n2
o2
o1
v107
v110
o1
v109
v110
v11
o2
n2
v139
o3
o0
o2
o1
o54
3
n0.015625
o5
o1
v114
v110
n2
o5
o1
v111
v110
n2
o2
o2
n2
o1
v114
v110
o1
v111
v110
v12
o2
o0
o16
o5
o1
v111
v110
n2
o2
o1
v114
v110
o1
v111
v110
v16
o2
n2
v146
o3
o2
o0
n0.015625
o5
o1
v191
v111
n2
v12
o2
n2
v193
o3
o54
3
o2
o0
n0.015625
o5
o1
v113
v109
n2
v12
o2
o54
3
n-0.015625
o16
o5
o1
v113
v109
n2
o2
o1
v113
v109
o1
v110
v109
v11
o16
o2
o2
o1
v113
v109
o1
v110
v109
v15
o2
n2
v144
o3
o2
o5
o1
v191
v107
n2
v12
o2
n2
v192
o3
o54
3
o2
o5
o1
v113
v114
n2
v12
o16
o2
o2
o1
v110
v114
o1
v113
v114
v15
o2
o0
o16
o5
o1
v113
v114
n2
o2
o1
v110
v114
o1
v113
v114
v16
o2
n2
v145
C3
o16
v194
V195 0 5
o54
3
o3
o54
3
o2
o0
n0.015625
o5
o0
n-0.5
v112
n2
v13
o2
n-0.015625
v14
o16
o2
o5
o0
n-0.5
v112
n2
v17
o2
n2
v147
o3
o54
3
o2
o0
n0.015625
o5
o1
v108
v112
n2
v13
o2
o54
3
n-0.015625
o16
o5
o1
v108
v112
n2
o2
o1
v108
v112
o1
n0.5
v112
v14
o16
o2
o2
o1
v108
v112
o1
n0.5
v112
v10
o2
n2
v141
o3
o0
o2
o5
o0
n-0.5
v108
n2
v13
o16
o2
o5
o0
n-0.5
v108
n2
v9
o2
n2
v140
C4
o16
v195
V196 0 6
o54
6
o3
o54
3
o2
o1
o54
3
n0.015625
o5
o1
v108
v112
n2
o5
o1
n0.5
v112
n2
o2
o2
n2
o1
v108
v112
o1
n0.5
v112
v14
o2
o54
3
n-0.015625
o16
o5
o1
v108
v112
n2
o2
o1
v108
v112
o1
n0.5
v112
v13
o2
o0
o16
o5
o1
n0.5
v112
n2
o2
o1
v108
v112
o1
n0.5
v112
v10
o2
n2
v141
o3
o54
3
o2
o1
o54
3
n0.015625
o5
o1
v116
v112
n2
o5
o1
v113
v112
n2
o2
o2
n2
o1
v116
v112
o1
v113
v112
v14
o2
o54
3
n-0.015625
o16
o5
o1
v116
v112
n2
o2
o1
v116
v112
o1
v113
v112
v15
o2
o0
o16
o5
o1
v113
v112
n2
o2
o1
v116
v112
o1
v113
v112
v18
o2
n2
v149
o3
o54
3
o2
o0
n0.015625
o5
o1
v109
v113
n2
v14
o2
o54
3
n-0.015625
o16
o5
o1
v109
v113
n2
o2
o1
v109
v113
o1
v112
v113
v15
o16
o2
o2
o1
v109
v113
o1
v112
v113
v11
o2
n2
v143
o3
o0
o2
n0.015625
v14
o2
n-0.015625
v13
o2
n2
v147
o3
o54
3
o2
o5
o1
v109
v108
n2
v14
o16
o2
o2
o1
v112
v108
o1
v109
v108
v11
o2
o0
o16
o5
o1
v109
v108
n2
o2
o1
v112
v108
o1
v109
v108
v10
o2
n2
v142
o3
o54
3
o2
o5
o1
n0.5
v116
n2
v14
o16
o2
o2
o1
v112
v116
o1
n0.5
v116
v17
o2
o0
o16
o5
o1
n0.5
v116
n2
o2
o1
v112
v116
o1
n0.5
v116
v18
o2
n2
v148
C5
o16
v196
V197 0 7
o54
6
o3
o54
3
o2
o1
o54
3
n0.015625
o5
o1
v109
v113
n2
o5
o1
v112
v113
n2
o2
o2
n2
o1
v109
v113
o1
v112
v113
v15
o2
o54
3
n-0.015625
o16
o5
o1
v109
v113
n2
o2
o1
v109
v113
o1
v112
v113
v14
o2
o0
o16
o5
o1
v112
v113
n2
o2
o1
v109
v113
o1
v112
v113
v11
o2
n2
v143
o3
o54
3
o2
o1
o54
3
n0.015625
o5
o1
v117
v113
n2
o5
o1
v114
v113
n2
o2
o2
n2
o1
v117
v113
o1
v114
v113
v15
o2
o54
3
n-0.015625
o16
o5
o1
v117
v113
n2
o2
o1
v117
v113
o1
v114
v113
v16
o2
o0
o16
o5
o1
v114
v113
n2
o2
o1
v117
v113
o1
v114
v113
v19
o2
n2
v151
o3
o54
3
o2
o0
n0.015625
o5
o1
v110
v114
n2
v15
o2
o54
3
n-0.015625
o16
o5
o1
v110
v114
n2
o2
o1
v110
v114
o1
v113
v114
v16
o16
o2
o2
o1
v110
v114
o1
v113
v114
v12
o2
n2
v145
o3
o54
3
o2
o0
n0.015625
o5
o1
v116
v112
n2
v15
o2
o54
3
n-0.015625
o16
o5
o1
v116
v112
n2
o2
o1
v116
v112
o1
v113
v112
v14
o16
o2
o2
o1
v116
v112
o1
v113
v112
v18
o2
n2
v149
o3
o54
3
o2
o5
o1
v110
v109
n2
v15
o16
o2
o2
o1
v113
v109
o1
v110
v109
v12
o2
o0
o16
o5
o1
v110
v109
n2
o2
o1
v113
v109
o1
v110
v109
v11
o2
n2
v144
o3
o54
3
o2
o5
o1
v116
v117
n2
v15
o16
o2
o2
o1
v113
v117
o1
v116
v117
v18
o2
o0
o16
o5
o1
v116
v117
n2
o2
o1
v113
v117
o1
v116
v117
v19
o2
n2
v150
C6
o16
v197
V198 1 8
2 0.03125
n-0.015625
V199 0 8
o54
6
o3
o54
3
o2
o1
o54
3
n0.015625
o5
o1
v110
v114
n2
o5
o1
v113
v114
n2
o2
o2
n2
o1
v110
v114
o1
v113
v114
v16
o2
o54
3
n-0.015625
o16
o5
o1
v110
v114
n2
o2
o1
v110
v114
o1
v113
v114
v15
o2
o0
o16
o5
o1
v113
v114
n2
o2
o1
v110
v114
o1
v113
v114
v12
o2
n2
v145
o3
o0
o2
o1
o54
3
n0.015625
o5
o1
v118
v114
n2
o5
o1
v115
v114
n2
o2
o2
n2
o1
v118
v114
o1
v115
v114
v16
o2
o0
o16
o5
o1
v115
v114
n2
o2
o1
v118
v114
o1
v115
v114
v20
o2
n2
v153
o3
o2
o0
n0.015625
o5
o1
v111
v115
n2
v16
o2
n2
v198
o3
o54
3
o2
o0
n0.015625
o5
o1
v117
v113
n2
v16
o2
o54
3
n-0.015625
o16
o5
o1
v117
v113
n2
o2
o1
v117
v113
o1
v114
v113
v15
o16
o2
o2
o1
v117
v113
o1
v114
v113
v19
o2
n2
v151
o3
o0
o2
o5
o1
v111
v110
n2
v16
o2
o0
o16
o5
o1
v111
v110
n2
o2
o1
v114
v110
o1
v111
v110
v12
o2
n2
v146
o3
o54
3
o2
o5
o1
v117
v118
n2
v16
o16
o2
o2
o1
v114
v118
o1
v117
v118
v19
o2
o0
o16
o5
o1
v117
v118
n2
o2
o1
v114
v118
o1
v117
v118
v20
o2
n2
v152
C7
o16
v199
V200 0 9
o54
3
o3
o54
3
o2
o0
n0.015625
o5
o0
n-0.5
v116
n2
v17
o2
n-0.015625
v18
o16
o2
o5
o0
n-0.5
v116
n2
v21
o2
n2
v154
o3
o54
3
o2
o0
n0.015625
o5
o1
v112
v116
n2
v17
o2
o54
3
n-0.015625
o16
o5
o1
v112
v116
n2
o2
o1
v112
v116
o1
n0.5
v116
v18
o16
o2
o2
o1
v112
v116
o1
n0.5
v116
v14
o2
n2
v148
o3
o0
o2
o5
o0
n-0.5
v112
n2
v17
o16
o2
o5
o0
n-0.5
v112
n2
v13
o2
n2
v147
C8
o16
v200
V201 0 10
o54
6
o3
o54
3
o2
o1
o54
3
n0.015625
o5
o1
v112
v116
n2
o5
o1
n0.5
v116
n2
o2
o2
n2
o1
v112
v116
o1
n0.5
v116
v18
o2
o54
3
n-0.015625
o16
o5
o1
v112
v116
n2
o2
o1
v112
v116
o1
n0.5
v116
v17
o2
o0
o16
o5
o1
n0.5
v116
n2
o2
o1
v112
v116
o1
n0.5
v116
v14
o2
n2
v148
o3
o54
3
o2
o1
o54
3
n0.015625
o5
o1
v120
v116
n2
o5
o1
v117
v116
n2
o2
o2
n2
o1
v120
v116
o1
v117
v116
v18
o2
o54
3
n-0.015625
o16
o5
o1
v120
v116
n2
o2
o1
v120
v116
o1
v117
v116
v19
o2
o0
o16
o5
o1
v117
v116
n2
o2
o1
v120
v116
o1
v117
v116
v22
o2
n2
v156
o3
o54
3
o2
o0
n0.015625
o5
o1
v113
v117
n2
v18
o2
o54
3
n-0.015625
o16
o5
o1
v113
v117
n2
o2
o1
v113
v117
o1
v116
v117
v19
o16
o2
o2
o1
v113
v117
o1
v116
v117
v15
o2
n2
v150
o3
o0
o2
n0.015625
v18
o2
n-0.015625
v17
o2
n2
v154
o3
o54
3
o2
o5
o1
v113
v112
n2
v18
o16
o2
o2
o1
v116
v112
o1
v113
v112
v15
o2
o0
o16
o5
o1
v113
v112
n2
o2
o1
v116
v112
o1
v113
v112
v14
o2
n2
v149
o3
o54
3
o2
o5
o1
n0.5
v120
n2
v18
o16
o2
o2
o1
v116
v120
o1
n0.5
v120
v21
o2
o0
o16
o5
o1
n0.5
v120
n2
o2
o1
v116
v120
o1
n0.5
v120
v22
o2
n2
v155
C9
o16
v201
V202 0 11
o54
6
o3
o54
3
o2
o1
o54
3
n0.015625
o5
o1
v113
v117
n2
o5
o1
v116
v117
n2
o2
o2
n2
o1
v113
v117
o1
v116
v117
v19
o2
o54
3
n-0.015625
o16
o5
o1
v113
v117
n2
o2
o1
v113
v117
o1
v116
v117
v18
o2
o0
o16
o5
o1
v116
v117
n2
o2
o1
v113
v117
o1
v116
v117
v15
o2
n2
v150
o3
o54
3
o2
o1
o54
3
n0.015625
o5
o1
v121
v117
n2
o5
o1
v118
v117
n2
o2
o2
n2
o1
v121
v117
o1
v118
v117
v19
o2
o54
3
n-0.015625
o16
o5
o1
v121
v117
n2
o2
o1
v121
v117
o1
v118
v117
v20
o2
o0
o16
o5
o1
v118
v117
n2
o2
o1
v121
v117
o1
v118
v117
v23
o2
n2
v158
o3
o54
3
o2
o0
n0.015625
o5
o1
v114
v118
n2
v19
o2
o54
3
n-0.015625
o16
o5
o1
v114
v118
n2
o2
o1
v114
v118
o1
v117
v118
v20
o16
o2
o2
o1
v114
v118
o1
v117
v118
v16
o2
n2
v152
o3
o54
3
o2
o0
n0.015625
o5
o1
v120
v116
n2
v19
o2
o54
3
n-0.015625
o16
o5
o1
v120
v116
n2
o2
o1
v120
v116
o1
v117
v116
v18
o16
o2
o2
o1
v120
v116
o1
v117
v116
v22
o2
n2
v156
o3
o54
3
o2
o5
o1
v114
v113
n2
v19
o16
o2
o2
o1
v117
v113
o1
v114
v113
v16
o2
o0
o16
o5
o1
v114
v113
n2
o2
o1
v117
v113
o1
v114
v113
v15
o2
n2
v151
o3
o54
3
o2
o5
o1
v120
v121
n2
v19
o16
o2
o2
o1
v117
v121
o1
v120
v121
v22
o2
o0
o16
o5
o1
v120
v121
n2
o2
o1
v117
v121
o1
v120
v121
v23
o2
n2
v157
C10
o16
v202
V203 1 12
3 0.03125
n-0.015625
V204 0 12
o54
6
o3
o54
3
o2
o1
o54
3
n0.015625
o5
o1
v114
v118
n2
o5
o1
v117
v118
n2
o2
o2
n2
o1
v114
v118
o1
v117
v118
v20
o2
o54
3
n-0.015625
o16
o5
o1
v114
v118
n2
o2
o1
v114
v118
o1
v117
v118
v19
o2
o0
o16
o5
o1
v117
v118
n2
o2
o1
v114
v118
o1
v117
v118
v16
o2
n2
v152
o3
o0
o2
o1
o54
3
n0.015625
o5
o1
v122
v118
n2
o5
o1
v119
v118
n2
o2
o2
n2
o1
v122
v118
o1
v119
v118
v20
o2
o0
o16
o5
o1
v119
v118
n2
o2
o1
v122
v118
o1
v119
v118
v24
o2
n2
v160
o3
o2
o0
n0.015625
o5
o1
v115
v119
n2
v20
o2
n2
v203
o3
o54
3
o2
o0
n0.015625
o5
o1
v121
v117
n2
v20
o2
o54
3
n-0.015625
o16
o5
o1
v121
v117
n2
o2
o1
v121
v117
o1
v118
v117
v19
o16
o2
o2
o1
v121
v117
o1
v118
v117
v23
o2
n2
v158
o3
o0
o2
o5
o1
v115
v114
n2
v20
o2
o0
o16
o5
o1
v115
v114
n2
o2
o1
v118
v114
o1
v115
v114
v16
o2
n2
v153
o3
o54
3
o2
o5
o1
v121
v122
n2
v20
o16
o2
o2
o1
v118
v122
o1
v121
v122
v23
o2
o0
o16
o5
o1
v121
v122
n2
o2
o1
v118
v122
o1
v121
v122
v24
o2
n2
v159
C11
o16
v204
V205 0 13
o54
3
o3
o54
3
o2
o0
n0.015625
o5
o0
n-0.5
v120
n2
v21
o2
n-0.015625
v22
o16
o2
o5
o0
n-0.5
v120
n2
v25
o2
n2
v161
o3
o54
3
o2
o0
n0.015625
o5
o1
v116
v120
n2
v21
o2
o54
3
n-0.015625
o16
o5
o1
v116
v120
n2
o2
o1
v116
v120
o1
n0.5
v120
v22
o16
o2
o2
o1
v116
v120
o1
n0.5
v120
v18
o2
n2
v155
o3
o0
o2
o5
o0
n-0.5
v116
n2
v21
o16
o2
o5
o0
n-0.5
v116
n2
v17
o2
n2
v154
C12
o16
v205
V206 0 14
o54
6
o3
o54
3
o2
o1
o54
3
n0.015625
o5
o1
v116
v120
n2
o5
o1
n0.5
v120
n2
o2
o2
n2
o1
v116
v120
o1
n0.5
v120
v22
o2
o54
3
n-0.015625
o16
o5
o1
v116
v120
n2
o2
o1
v116
v120
o1
n0.5
v120
v21
o2
o0
o16
o5
o1
n0.5
v120
n2
o2
o1
v116
v120
o1
n0.5
v120
v18
o2
n2
v155
o3
o54
3
o2
o1
o54
3
n0.015625
o5
o1
v124
v120
n2
o5
o1
v121
v120
n2
o2
o2
n2
o1
v124
v120
o1
v121
v120
v22
o2
o54
3
n-0.015625
o16
o5
o1
v124
v120
n2
o2
o1
v124
v120
o1
v121
v120
v23
o2
o0
o16
o5
o1
v121
v120
n2
o2
o1
v124
v120
o1
v121
v120
v26
o2
n2
v163
o3
o54
3
o2
o0
n0.015625
o5
o1
v117
v121
n2
v22
o2
o54
3
n-0.015625
o16
o5
o1
v117
v121
n2
o2
o1
v117
v121
o1
v120
v121
v23
o16
o2
o2
o1
v117
v121
o1
v120
v121
v19
o2
n2
v157
o3
o0
o2
n0.015625
v22
o2
n-0.015625
v21
o2
n2
v161
o3
o54
3
o2
o5
o1
v117
v116
n2
v22
o16
o2
o2
o1
v120
v116
o1
v117
v116
v19
o2
o0
o16
o5
o1
v117
v116
n2
o2
o1
v120
v116
o1
v117
v116
v18
o2
n2
v156
o3
o54
3
o2
o5
o1
n0.5
v124
n2
v22
o16
o2
o2
o1
v120
v124
o1
n0.5
v124
v25
o2
o0
o16
o5
o1
n0.5
v124
n2
o2
o1
v120
v124
o1
n0.5
v124
v26
o2
n2
v162
C13
o16
v206
V207 0 15
o54
6
o3
o54
3
o2
o1
o54
3
n0.015625
o5
o1
v117
v121
n2
o5
o1
v120
v121
n2
o2
o2
n2
o1
v117
v121
o1
v120
v121
v23
o2
o54
3
n-0.015625
o16
o5
o1
v117
v121
n2
o2
o1
v117
v121
o1
v120
v121
v22
o2
o0
o16
o5
o1
v120
v121
n2
o2
o1
v117
v121
o1
v120
v121
v19
o2
n2
v157
o3
o54
3
o2
o1
o54
3
n0.015625
o5
o1
v125
v121
n2
o5
o1
v122
v121
n2
o2
o2
n2
o1
v125
v121
o1
v122
v121
v23
o2
o54
3
n-0.015625
o16
o5
o1
v125
v121
n2
o2
o1
v125
v121
o1
v122
v121
v24
o2
o0
o16
o5
o1
v122
v121
n2
o2
o1
v125
v121
o1
v122
v121
v27
o2
n2
v165
o3
o54
3
o2
o0
n0.015625
o5
o1
v118
v122
n2
v23
o2
o54
3
n-0.015625
o16
o5
o1
v118
v122
n2
o2
o1
v118
v122
o1
v121
v122
v24
o16
o2
o2
o1
v118
v122
o1
v121
v122
v20
o2
n2
v159
o3
o54
3
o2
o0
n0.015625
o5
o1
v124
v120
n2
v23
o2
o54
3
n-0.015625
o16
o5
o1
v124
v120
n2
o2
o1
v124
v120
o1
v121
v120
v22
o16
o2
o2
o1
v124
v120
o1
v121
v120
v26
o2
n2
v163
o3
o54
3
o2
o5
o1
v118
v117
n2
v23
o16
o2
o2
o1
v121
v117
o1
v118
v117
v20
o2
o0
o16
o5
o1
v118
v117
n2
o2
o1
v121
v117
o1
v118
v117
v19
o2
n2
v158
o3
o54
3
o2
o5
o1
v124
v125
n2
v23
o16
o2
o2
o1
v121
v125
o1
v124
v125
v26
o2
o0
o16
o5
o1
v124
v125
n2
o2
o1
v121
v125
o1
v124
v125
v27
o2
n2
v164
C14
o16
v207
V208 1 16
4 0.03125
n-0.015625
V209 0 16
o54
6
o3
o54
3
o2
o1
o54
3
n0.015625
o5
o1
v118
v122
n2
o5
o1
v121
v122
n2
o2
o2
n2
o1
v118
v122
o1
v121
v122
v24
o2
o54
3
n-0.015625
o16
o5
o1
v118
v122
n2
o2
o1
v118
v122
o1
v121
v122
v23
o2
o0
o16
o5
o1
v121
v122
n2
o2
o1
v118
v122
o1
v121
v122
v20
o2
n2
v159
o3
o0
o2
o1
o54
3
n0.015625
o5
o1
v126
v122
n2
o5
o1
v123
v122
n2
o2
o2
n2
o1
v126
v122
o1
v123
v122
v24
o2
o0
o16
o5
o1
v123
v122
n2
o2
o1
v126
v122
o1
v123
v122
v28
o2
n2
v167
o3
o2
o0
n0.015625
o5
o1
v119
v123
n2
v24
o2
n2
v208
o3
o54
3
o2
o0
n0.015625
o5
o1
v125
v121
n2
v24
o2
o54
3
n-0.015625
o16
o5
o1
v125
v121
n2
o2
o1
v125
v121
o1
v122
v121
v23
o16
o2
o2
o1
v125
v121
o1
v122
v121
v27
o2
n2
v165
o3
o0
o2
o5
o1
v119
v118
n2
v24
o2
o0
o16
o5
o1
v119
v118
n2
o2
o1
v122
v118
o1
v119
v118
v20
o2
n2
v160
o3
o54
3
o2
o5
o1
v125
v126
n2
v24
o16
o2
o2
o1
v122
v126
o1
v125
v126
v27
o2
o0
o16
o5
o1
v125
v126
n2
o2
o1
v122
v126
o1
v125
v126
v28
o2
n2
v166
C15
o16
v209
V210 0 17
o54
3
o3
o54
3
o2
o0
n0.015625
o5
o0
n-0.5
v124
n2
v25
o2
n-0.015625
v26
o16
o2
o5
o0
n-0.5
v124
n2
v29
o2
n2
v168
o3
o54
3
o2
o0
n0.015625
o5
o1
v120
v124
n2
v25
o2
o54
3
n-0.015625
o16
o5
o1
v120
v124
n2
o2
o1
v120
v124
o1
n0.5
v124
v26
o16
o2
o2
o1
v120
v124
o1
n0.5
v124
v22
o2
n2
v162
o3
o0
o2
o5
o0
n-0.5
v120
n2
v25
o16
o2
o5
o0
n-0.5
v120
n2
v21
o2
n2
v161
C16
o16
v210
V211 0 18
o54
6
o3
o54
3
o2
o1
o54
3
n0.015625
o5
o1
v120
v124
n2
o5
o1
n0.5
v124
n2
o2
o2
n2
o1
v120
v124
o1
n0.5
v124
v26
o2
o54
3
n-0.015625
o16
o5
o1
v120
v124
n2
o2
o1
v120
v124
o1
n0.5
v124
v25
o2
o0
o16
o5
o1
n0.5
v124
n2
o2
o1
v120
v124
o1
n0.5
v124
v22
o2
n2
v162
o3
o54
3
o2
o1
o54
3
n0.015625
o5
o1
v128
v124
n2
o5
o1
v125
v124
n2
o2
o2
n2
o1
v128
v124
o1
v125
v124
v26
o2
o54
3
n-0.015625
o16
o5
o1
v128
v124
n2
o2
o1
v128
v124
o1
v125
v124
v27
o2
o0
o16
o5
o1
v125
v124
n2
o2
o1
v128
v124
o1
v125
v124
v30
o2
n2
v170
o3
o54
3
o2
o0
n0.015625
o5
o1
v121
v125
n2
v26
o2
o54
3
n-0.015625
o16
o5
o1
v121
v125
n2
o2
o1
v121
v125
o1
v124
v125
v27
o16
o2
o2
o1
v121
v125
o1
v124
v125
v23
o2
n2
v164
o3
o0
o2
n0.015625
v26
o2
n-0.015625
v25
o2
n2
v168
o3
o54
3
o2
o5
o1
v121
v120
n2
v26
o16
o2
o2
o1
v124
v120
o1
v121
v120
v23
o2
o0
o16
o5
o1
v121
v120
n2
o2
o1
v124
v120
o1
v121
v120
v22
o2
n2
v163
o3
o54
3
o2
o5
o1
n0.5
v128
n2
v26
o16
o2
o2
o1
v124
v128
o1
n0.5
v128
v29
o2
o0
o16
o5
o1
n0.5
v128
n2
o2
o1
v124
v128
o1
n0.5
v128
v30
o2
n2
v169
C17
o16
v211
V212 0 19
o54
6
o3
o54
3
o2
o1
o54
3
n0.015625
o5
o1
v121
v125
n2
o5
o1
v124
v125
n2
o2
o2
n2
o1
v121
v125
o1
v124
v125
v27
o2
o54
3
n-0.015625
o16
o5
o1
v121
v125
n2
o2
o1
v121
v125
o1
v124
v125
v26
o2
o0
o16
o5
o1
v124
v125
n2
o2
o1
v121
v125
o1
v124
v125
v23
o2
n2
v164
o3
o54
3
o2
o1
o54
3
n0.015625
o5
o1
v129
v125
n2
o5
o1
v126
v125
n2
o2
o2
n2
o1
v129
v125
o1
v126
v125
v27
o2
o54
3
n-0.015625
o16
o5
o1
v129
v125
n2
o2
o1
v129
v125
o1
v126
v125
v28
o2
o0
o16
o5
o1
v126
v125
n2
o2
o1
v129
v125
o1
v126
v125
v31
o2
n2
v172
o3
o54
3
o2
o0
n0.015625
o5
o1
v122
v126
n2
v27
o2
o54
3
n-0.015625
o16
o5
o1
v122
v126
n2
o2
o1
v122
v126
o1
v125
v126
v28
o16
o2
o2
o1
v122
v126
o1
v125
v126
v24
o2
n2
v166
o3
o54
3
o2
o0
n0.015625
o5
o1
v128
v124
n2
v27
o2
o54
3
n-0.015625
o16
o5
o1
v128
v124
n2
o2
o1
v128
v124
o1
v125
v124
v26
o16
o2
o2
o1
v128
v124
o1
v125
v124
v30
o2
n2
v170
o3
o54
3
o2
o5
o1
v122
v121
n2
v27
o16
o2
o2
o1
v125
v121
o1
v122
v121
v24
o2
o0
o16
o5
o1
v122
v121
n2
o2
o1
v125
v121
o1
v122
v121
v23
o2
n2
v165
o3
o54
3
o2
o5
o1
v128
v129
n2
v27
o16
o2
o2
o1
v125
v129
o1
v128
v129
v30
o2
o0
o16
o5
o1
v128
v129
n2
o2
o1
v125
v129
o1
v128
v129
v31
o2
n2
v171
C18
o16
v212
V213 1 20
5 0.03125
n-0.015625
V214 0 20
o54
6
o3
o54
3
o2
o1
o54
3
n0.015625
o5
o1
v122
v126
n2
o5
o1
v125
v126
n2
o2
o2
n2
o1
v122
v126
o1
v125
v126
v28
o2
o54
3
n-0.015625
o16
o5
o1
v122
v126
n2
o2
o1
v122
v126
o1
v125
v126
v27
o2
o0
o16
o5
o1
v125
v126
n2
o2
o1
v122
v126
o1
v125
v126
v24
o2
n2
v166
o3
o0
o2
o1
o54
3
n0.015625
o5
o1
v130
v126
n2
o5
o1
v127
v126
n2
o2
o2
n2
o1
v130
v126
o1
v127
v126
v28
o2
o0
o16
o5
o1
v127
v126
n2
o2
o1
v130
v126
o1
v127
v126
v32
o2
n2
v174
o3
o2
o0
n0.015625
o5
o1
v123
v127
n2
v28
o2
n2
v213
o3
o54
3
o2
o0
n0.015625
o5
o1
v129
v125
n2
v28
o2
o54
3
n-0.015625
o16
o5
o1
v129
v125
n2
o2
o1
v129
v125
o1
v126
v125
v27
o16
o2
o2
o1
v129
v125
o1
v126
v125
v31
o2
n2
v172
o3
o0
o2
o5
o1
v123
v122
n2
v28
o2
o0
o16
o5
o1
v123
v122
n2
o2
o1
v126
v122
o1
v123
v122
v24
o2
n2
v167
o3
o54
3
o2
o5
o1
v129
v130
n2
v28
o16
o2
o2
o1
v126
v130
o1
v129
v130
v31
o2
o0
o16
o5
o1
v129
v130
n2
o2
o1
v126
v130
o1
v129
v130
v32
o2
n2
v173
C19
o16
v214
V215 0 21
o54
3
o3
o54
3
o2
o0
n0.015625
o5
o0
n-0.5
v128
n2
v29
o2
n-0.015625
v30
o16
o2
o5
o0
n-0.5
v128
n2
v33
o2
n2
v175
o3
o54
3
o2
o0
n0.015625
o5
o1
v124
v128
n2
v29
o2
o54
3
n-0.015625
o16
o5
o1
v124
v128
n2
o2
o1
v124
v128
o1
n0.5
v128
v30
o16
o2
o2
o1
v124
v128
o1
n0.5
v128
v26
o2
n2
v169
o3
o0
o2
o5
o0
n-0.5
v124
n2
v29
o16
o2
o5
o0
n-0.5
v124
n2
v25
o2
n2
v168
C20
o16
v215
V216 0 22
o54
6
o3
o54
3
o2
o1
o54
3
n0.015625
o5
o1
v124
v128
n2
o5
o1
n0.5
v128
n2
o2
o2
n2
o1
v124
v128
o1
n0.5
v128
v30
o2
o54
3
n-0.015625
o16
o5
o1
v124
v128
n2
o2
o1
v124
v128
o1
n0.5
v128
v29
o2
o0
o16
o5
o1
n0.5
v128
n2
o2
o1
v124
v128
o1
n0.5
v128
v26
o2
n2
v169
o3
o54
3
o2
o1
o54
3
n0.015625
o5
o1
v132
v128
n2
o5
o1
v129
v128
n2
o2
o2
n2
o1
v132
v128
o1
v129
v128
v30
o2
o54
3
n-0.015625
o16
o5
o1
v132
v128
n2
o2
o1
v132
v128
o1
v129
v128
v31
o2
o0
o16
o5
o1
v129
v128
n2
o2
o1
v132
v128
o1
v129
v128
v34
o2
n2
v177
o3
o54
3
o2
o0
n0.015625
o5
o1
v125
v129
n2
v30
o2
o54
3
n-0.015625
o16
o5
o1
v125
v129
n2
o2
o1
v125
v129
o1
v128
v129
v31
o16
o2
o2
o1
v125
v129
o1
v128
v129
v27
o2
n2
v171
o3
o0
o2
n0.015625
v30
o2
n-0.015625
v29
o2
n2
v175
o3
o54
3
o2
o5
o1
v125
v124
n2
v30
o16
o2
o2
o1
v128
v124
o1
v125
v124
v27
o2
o0
o16
o5
o1
v125
v124
n2
o2
o1
v128
v124
o1
v125
v124
v26
o2
n2
v170
o3
o54
3
o2
o5
o1
n0.5
v132
n2
v30
o16
o2
o2
o1
v128
v132
o1
n0.5
v132
v33
o2
o0
o16
o5
o1
n0.5
v132
n2
o2
o1
v128
v132
o1
n0.5
v132
v34
o2
n2
v176
C21
o16
v216
V217 0 23
o54
6
o3
o54
3
o2
o1
o54
3
n0.015625
o5
o1
v125
v129
n2
o5
o1
v128
v129
n2
o2
o2
n2
o1
v125
v129
o1
v128
v129
v31
o2
o54
3
n-0.015625
o16
o5
o1
v125
v129
n2
o2
o1
v125
v129
o1
v128
v129
v30
o2
o0
o16
o5
o1
v128
v129
n2
o2
o1
v125
v129
o1
v128
v129
v27
o2
n2
v171
o3
o54
3
o2
o1
o54
3
n0.015625
o5
o1
v133
v129
n2
o5
o1
v130
v129
n2
o2
o2
n2
o1
v133
v129
o1
v130
v129
v31
o2
o54
3
n-0.015625
o16
o5
o1
v133
v129
n2
o2
o1
v133
v129
o1
v130
v129
v32
o2
o0
o16
o5
o1
v130
v129
n2
o2
o1
v133
v129
o1
v130
v129
v35
o2
n2
v179
o3
o54
3
o2
o0
n0.015625
o5
o1
v126
v130
n2
v31
o2
o54
3
n-0.015625
o16
o5
o1
v126
v130
n2
o2
o1
v126
v130
o1
v129
v130
v32
o16
o2
o2
o1
v126
v130
o1
v129
v130
v28
o2
n2
v173
o3
o54
3
o2
o0
n0.015625
o5
o1
v132
v128
n2
v31
o2
o54
3
n-0.015625
o16
o5
o1
v132
v128
n2
o2
o1
v132
v128
o1
v129
v128
v30
o16
o2
o2
o1
v132
v128
o1
v129
v128
v34
o2
n2
v177
o3
o54
3
o2
o5
o1
v126
v125
n2
v31
o16
o2
o2
o1
v129
v125
o1
v126
v125
v28
o2
o0
o16
o5
o1
v126
v125
n2
o2
o1
v129
v125
o1
v126
v125
v27
o2
n2
v172
o3
o54
3
o2
o5
o1
v132
v133
n2
v31
o16
o2
o2
o1
v129
v133
o1
v132
v133
v34
o2
o0
o16
o5
o1
v132
v133
n2
o2
o1
v129
v133
o1
v132
v133
v35
o2
n2
v178
C22
o16
v217
V218 1 24
6 0.03125
n-0.015625
V219 0 24
o54
6
o3
o54
3
o2
o1
o54
3
n0.015625
o5
o1
v126
v130
n2
o5
o1
v129
v130
n2
o2
o2
n2
o1
v126
v130
o1
v129
v130
v32
o2
o54
3
n-0.015625
o16
o5
o1
v126
v130
n2
o2
o1
v126
v130
o1
v129
v130
v31
o2
o0
o16
o5
o1
v129
v130
n2
o2
o1
v126
v130
o1
v129
v130
v28
o2
n2
v173
o3
o0
o2
o1
o54
3
n0.015625
o5
o1
v134
v130
n2
o5
o1
v131
v130
n2
o2
o2
n2
o1
v134
v130
o1
v131
v130
v32
o2
o0
o16
o5
o1
v131
v130
n2
o2
o1
v134
v130
o1
v131
v130
v36
o2
n2
v181
o3
o2
o0
n0.015625
o5
o1
v127
v131
n2
v32
o2
n2
v218
o3
o54
3
o2
o0
n0.015625
o5
o1
v133
v129
n2
v32
o2
o54
3
n-0.015625
o16
o5
o1
v133
v129
n2
o2
o1
v133
v129
o1
v130
v129
v31
o16
o2
o2
o1
v133
v129
o1
v130
v129
v35
o2
n2
v179
o3
o0
o2
o5
o1
v127
v126
n2
v32
o2
o0
o16
o5
o1
v127
v126
n2
o2
o1
v130
v126
o1
v127
v126
v28
o2
n2
v174
o3
o54
3
o2
o5
o1
v133
v134
n2
v32
o16
o2
o2
o1
v130
v134
o1
v133
v134
v35
o2
o0
o16
o5
o1
v133
v134
n2
o2
o1
v130
v134
o1
v133
v134
v36
o2
n2
v180
C23
o16
v219
V220 0 25
o54
3
o3
o0
o2
o0
n0.015625
o5
o0
n-0.5
v132
n2
v33
o2
n-0.015625
v34
o2
n2
v182
o3
o54
3
o2
o0
n0.015625
o5
o1
v128
v132
n2
v33
o2
o54
3
n-0.015625
o16
o5
o1
v128
v132
n2
o2
o1
v128
v132
o1
n0.5
v132
v34
o16
o2
o2
o1
v128
v132
o1
n0.5
v132
v30
o2
n2
v176
o3
o0
o2
o5
o0
n-0.5
v128
n2
v33
o16
o2
o5
o0
n-0.5
v128
n2
v29
o2
n2
v175
C24
o16
v220
V221 1 26
8 0.03125
n-0.015625
V222 0 26
o54
6
o3
o54
3
o2
o1
o54
3
n0.015625
o5
o1
v128
v132
n2
o5
o1
n0.5
v132
n2
o2
o2
n2
o1
v128
v132
o1
n0.5
v132
v34
o2
o54
3
n-0.015625
o16
o5
o1
v128
v132
n2
o2
o1
v128
v132
o1
n0.5
v132
v33
o2
o0
o16
o5
o1
n0.5
v132
n2
o2
o1
v128
v132
o1
n0.5
v132
v30
o2
n2
v176
o3
o0
o2
o1
o54
3
n0.015625
o5
o1
v135
v132
n2
o5
o1
v133
v132
n2
o2
o2
n2
o1
v135
v132
o1
v133
v132
v34
o2
o54
3
n-0.015625
o16
o5
o1
v135
v132
n2
o2
o1
v135
v132
o1
v133
v132
v35
o2
n2
v183
o3
o54
3
o2
o0
n0.015625
o5
o1
v129
v133
n2
v34
o2
o54
3
n-0.015625
o16
o5
o1
v129
v133
n2
o2
o1
v129
v133
o1
v132
v133
v35
o16
o2
o2
o1
v129
v133
o1
v132
v133
v31
o2
n2
v178
o3
o0
o2
n0.015625
v34
o2
n-0.015625
v33
o2
n2
v182
o3
o54
3
o2
o5
o1
v129
v128
n2
v34
o16
o2
o2
o1
v132
v128
o1
v129
v128
v31
o2
o0
o16
o5
o1
v129
v128
n2
o2
o1
v132
v128
o1
v129
v128
v30
o2
n2
v177
o3
o2
o5
o1
n0.5
v135
n2
v34
o2
n2
v221
C25
o16
v222
V223 1 27
8 0.03125
n-0.015625
V224 0 27
o54
6
o3
o54
3
o2
o1
o54
3
n0.015625
o5
o1
v129
v133
n2
o5
o1
v132
v133
n2
o2
o2
n2
o1
v129
v133
o1
v132
v133
v35
o2
o54
3
n-0.015625
o16
o5
o1
v129
v133
n2
o2
o1
v129
v133
o1
v132
v133
v34
o2
o0
o16
o5
o1
v132
v133
n2
o2
o1
v129
v133
o1
v132
v133
v31
o2
n2
v178
o3
o0
o2
o1
o54
3
n0.015625
o5
o1
v136
v133
n2
o5
o1
v134
v133
n2
o2
o2
n2
o1
v136
v133
o1
v134
v133
v35
o2
o54
3
n-0.015625
o16
o5
o1
v136
v133
n2
o2
o1
v136
v133
o1
v134
v133
v36
o2
n2
v184
o3
o54
3
o2
o0
n0.015625
o5
o1
v130
v134
n2
v35
o2
o54
3
n-0.015625
o16
o5
o1
v130
v134
n2
o2
o1
v130
v134
o1
v133
v134
v36
o16
o2
o2
o1
v130
v134
o1
v133
v134
v32
o2
n2
v180
o3
o0
o2
o0
n0.015625
o5
o1
v135
v132
n2
v35
o2
o54
3
n-0.015625
o16
o5
o1
v135
v132
n2
o2
o1
v135
v132
o1
v133
v132
v34
o2
n2
v183
o3
o54
3
o2
o5
o1
v130
v129
n2
v35
o16
o2
o2
o1
v133
v129
o1
v130
v129
v32
o2
o0
o16
o5
o1
v130
v129
n2
o2
o1
v133
v129
o1
v130
v129
v31
o2
n2
v179
o3
o2
o5
o1
v135
v136
n2
v35
o2
n2
v223
C26
o16
v224
V225 1 28
7 1
n0
V226 1 28
8 0.75
n0.125
V227 1 28
7 0.03125
n-0.015625
V228 1 28
8 0.03125
n-0.015625
V229 1 28
7 0.03125
n-0.015625
V230 0 28
o54
6
o3
o54
3
o2
o1
o54
3
n0.015625
o5
o1
v130
v134
n2
o5
o1
v133
v134
n2
o2
o2
n2
o1
v130
v134
o1
v133
v134
v36
o2
o54
3
n-0.015625
o16
o5
o1
v130
v134
n2
o2
o1
v130
v134
o1
v133
v134
v35
o2
o0
o16
o5
o1
v133
v134
n2
o2
o1
v130
v134
o1
v133
v134
v32
o2
n2
v180
o3
o2
o1
o54
3
n0.015625
o5
o1
v226
v134
n2
o5
o1
v225
v134
n2
o2
o2
n2
o1
v226
v134
o1
v225
v134
v36
o2
n2
v229
o3
o2
o0
n0.015625
o5
o1
v131
v225
n2
v36
o2
n2
v227
o3
o0
o2
o0
n0.015625
o5
o1
v136
v133
n2
v36
o2
o54
3
n-0.015625
o16
o5
o1
v136
v133
n2
o2
o1
v136
v133
o1
v134
v133
v35
o2
n2
v184
o3
o0
o2
o5
o1
v131
v130
n2
v36
o2
o0
o16
o5
o1
v131
v130
n2
o2
o1
v134
v130
o1
v131
v130
v32
o2
n2
v181
o3
o2
o5
o1
v136
v226
n2
v36
o2
n2
v228
C27
o16
v230
C28
n0
C29
n0
C30
n0
C31
n0
C32
n0
C33
n0
C34
n0
C35
n0
C36
n0
C37
n0
C38
n0
C39
n0
C40
n0
C41
n0
C42
n0
C43
n0
C44
n0
C45
n0
C46
n0
C47
n0
C48
n0
C49
n0
C50
n0
C51
n0
C52
n0
C53
n0
C54
n0
C55
n0
C56
n0
C57
n0.00625
C58
n0.0125
C59
n0.025
C60
n0.018750000000000003
C61
n0.0125
C62
n0.00625
C63
n0.00625
C64
n0.0125
C65
n0.018750000000000003
C66
n0.025
C67
n0.018750000000000003
C68
n0.0125
C69
n0.00625
C70
n0.00625
C71
n0.0125
C72
n0.018750000000000003
C73
n0.025
C74
n0.018750000000000003
C75
n0.0125
C76
n0.00625
C77
n0.00625
C78
n0.0125
C79
n0.018750000000000003
C80
n0.025
C81
n0.018750000000000003
C82
n0.0125
C83
n0.00625
C84
n0.00625
C85
n0.0125
C86
n0.018750000000000003
C87
n0.025
C88
n0.018750000000000003
C89
n0.0125
C90
n0.00625
C91
n0.00625
C92
n0.0125
C93
n0.018750000000000003
C94
n0.025
C95
n0.018750000000000003
C96
n0.0125
C97
n0.00625
C98
n0.00625
C99
n0.0125
C100
n0.025
C101
n0.018750000000000003
C102
n0.0125
C103
n0.00625
O0 0
n35.15625
x9
0 1
1 1
2 1
3 1
4 1
5 1
6 1
7 1
8 1
r
4 8.673617379884035e-19
4 -0.015624999999999998
4 -0.015624999999999998
4 -0.015624999999999998
4 8.673617379884035e-19
4 -0.015624999999999998
4 -0.015624999999999998
4 -0.015624999999999998
4 8.673617379884035e-19
4 -0.015624999999999998
4 -0.015624999999999998
4 -0.015624999999999998
4 8.673617379884035e-19
4 -0.015624999999999998
4 -0.015624999999999998
4 -0.015624999999999998
4 8.673617379884035e-19
4 -0.015624999999999998
4 -0.015624999999999998
4 -0.015624999999999998
4 8.673617379884035e-19
4 -0.015624999999999998
4 -0.015624999999999998
4 -0.015624999999999998
4 8.673617379884035e-19
4 -0.015624999999999998
4 -0.015624999999999998
4 -0.015624999999999998
4 0.015624999999999998
4 0.015624999999999998
0 -0.375 0.375
0 -0.375 0.375
0 -0.375 0.375
0 -0.375 0.375
0 -0.375 0.375
0 -0.375 0.375
0 -0.375 0.375
0 -0.375 0.375
4 0.015624999999999998
4 0.015624999999999998
4 0.015624999999999998
4 0.015624999999999998
4 0.015624999999999998
4 0.015624999999999998
4 0.015624999999999998
4 0.015624999999999998
4 0.015624999999999998
4 0.015624999999999998
4 0.015624999999999998
4 0.015624999999999998
4 0.015624999999999998
4 0.015624999999999998
4 0.015624999999999998
4 0.015624999999999998
4 0.015624999999999998
4 0.015624999999999998
4 0.015624999999999998
5 1 59
5 1 60
5 1 61
5 1 62
5 1 63
5 1 64
5 1 65
5 1 66
5 1 67
5 1 68
5 1 69
5 1 70
5 1 71
5 1 72
5 1 73
5 1 74
5 1 75
5 1 76
5 1 77
5 1 78
5 1 79
5 1 80
5 1 81
5 1 82
5 1 83
5 1 84
5 1 85
5 1 86
5 1 87
5 1 88
5 1 89
5 1 90
5 1 91
5 1 92
5 1 93
5 1 94
5 1 95
5 1 96
5 1 97
5 1 98
5 1 99
5 1 100
5 1 101
5 1 102
5 1 103
5 1 104
5 1 105
b
0 0.6 1
0 0.6 1
0 0.6 1
0 0.6 1
0 0.6 1
0 0.6 1
0 0.6 1
0 0.6 1
0 0.6 1
2 -0.025
3
3
3
2 -0.025
3
3
3
2 -0.025
3
3
3
2 -0.025
3
3
3
2 -0.025
3
3
3
2 -0.025
3
3
3
2 -0.025
3
3
3
2 -0.00625
2 -0.0125
2 -0.018750000000000003
2 -0.00625
2 -0.0125
2 -0.018750000000000003
2 -0.00625
2 -0.0125
2 -0.018750000000000003
2 -0.00625
2 -0.0125
2 -0.018750000000000003
2 -0.00625
2 -0.0125
2 -0.018750000000000003
2 -0.00625
2 -0.0125
2 -0.018750000000000003
2 -0.00625
2 -0.0125
2 -0.018750000000000003
2 0
2 0
2 0
2 0
2 0
2 0
2 0
2 0
2 0
2 0
2 0
2 0
2 0
2 0
2 0
2 0
2 0
2 0
2 0
2 0
2 0
2 0
2 0
2 0
2 0
2 0
2 0
2 0
2 0
2 0
2 0
2 0
2 0
2 0
2 0
2 0
2 0
2 0
2 0
2 0
2 0
2 0
2 0
2 0
2 0
2 0
2 0
k104
5
18
34
50
66
82
98
110
114
119
125
131
136
143
151
159
165
172
180
188
194
201
209
217
223
230
238
246
252
259
267
275
281
287
293
299
303
307
312
316
321
327
333
338
344
350
355
361
367
372
378
384
389
395
401
405
410
414
415
416
417
418
419
420
421
422
423
424
425
426
427
428
429
430
431
432
433
434
435
436
437
438
439
440
441
442
443
444
445
446
447
448
449
450
451
452
453
454
455
456
457
458
459
460
J0 7
0 -0.005208333333333333
1 -0.010416666666666666
9 -2
10 0
13 0.5
39 1
60 1
J1 9
0 -0.005208333333333333
1 -0.020833333333333332
2 -0.005208333333333333
9 0
10 0
11 0
13 0
14 0
61 1
J2 9
0 -0.005208333333333333
1 -0.020833333333333332
2 -0.005208333333333333
10 0
11 0
12 0
14 0
15 0
62 1
J3 8
0 -0.005208333333333333
1 -0.020833333333333332
2 -0.005208333333333333
11 0
12 0
15 0
16 0
63 1
J4 9
1 -0.005208333333333333
2 -0.010416666666666666
9 0.5
10 0
13 -2
14 0
17 0.5
42 1
67 1
J5 11
1 -0.005208333333333333
2 -0.020833333333333332
3 -0.005208333333333333
10 0
11 0
13 0
14 0
15 0
17 0
18 0
68 1
J6 11
1 -0.005208333333333333
2 -0.020833333333333332
3 -0.005208333333333333
11 0
12 0
14 0
15 0
16 0
18 0
19 0
69 1
J7 9
1 -0.005208333333333333
2 -0.020833333333333332
3 -0.005208333333333333
12 0
15 0
16 0
19 0
20 0
70 1
J8 9
2 -0.005208333333333333
3 -0.010416666666666666
13 0.5
14 0
17 -2
18 0
21 0.5
45 1
74 1
J9 11
2 -0.005208333333333333
3 -0.020833333333333332
4 -0.005208333333333333
14 0
15 0
17 0
18 0
19 0
21 0
22 0
75 1
J10 11
2 -0.005208333333333333
3 -0.020833333333333332
4 -0.005208333333333333
15 0
16 0
18 0
19 0
20 0
22 0
23 0
76 1
J11 9
2 -0.005208333333333333
3 -0.020833333333333332
4 -0.005208333333333333
16 0
19 0
20 0
23 0
24 0
77 1
J12 9
3 -0.005208333333333333
4 -0.010416666666666666
17 0.5
18 0
21 -2
22 0
25 0.5
48 1
81 1
J13 11
3 -0.005208333333333333
4 -0.020833333333333332
5 -0.005208333333333333
18 0
19 0
21 0
22 0
23 0
25 0
26 0
82 1
J14 11
3 -0.005208333333333333
4 -0.020833333333333332
5 -0.005208333333333333
19 0
20 0
22 0
23 0
24 0
26 0
27 0
83 1
J15 9
3 -0.005208333333333333
4 -0.020833333333333332
5 -0.005208333333333333
20 0
23 0
24 0
27 0
28 0
84 1
J16 9
4 -0.005208333333333333
5 -0.010416666666666666
21 0.5
22 0
25 -2
26 0
29 0.5
51 1
88 1
J17 11
4 -0.005208333333333333
5 -0.020833333333333332
6 -0.005208333333333333
22 0
23 0
25 0
26 0
27 0
29 0
30 0
89 1
J18 11
4 -0.005208333333333333
5 -0.020833333333333332
6 -0.005208333333333333
23 0
24 0
26 0
27 0
28 0
30 0
31 0
90 1
J19 9
4 -0.005208333333333333
5 -0.020833333333333332
6 -0.005208333333333333
24 0
27 0
28 0
31 0
32 0
91 1
J20 9
5 -0.005208333333333333
6 -0.010416666666666666
25 0.5
26 0
29 -2
30 0
33 0.5
54 1
95 1
J21 11
5 -0.005208333333333333
6 -0.020833333333333332
7 -0.005208333333333333
26 0
27 0
29 0
30 0
31 0
33 0
34 0
96 1
J22 11
5 -0.005208333333333333
6 -0.020833333333333332
7 -0.005208333333333333
27 0
28 0
30 0
31 0
32 0
34 0
35 0
97 1
J23 9
5 -0.005208333333333333
6 -0.020833333333333332
7 -0.005208333333333333
28 0
31 0
32 0
35 0
36 0
98 1
J24 8
6 -0.005208333333333333
7 -0.010416666666666666
29 0.5
30 0
33 -2
34 0
57 1
101 1
J25 9
6 -0.005208333333333333
7 -0.020833333333333332
8 -0.005208333333333333
30 0
31 0
33 0
34 0
35 0
102 1
J26 9
6 -0.005208333333333333
7 -0.020833333333333332
8 -0.005208333333333333
31 0
32 0
34 0
35 0
36 0
103 1
J27 7
6 -0.005208333333333333
7 -0.020833333333333332
8 -0.005208333333333333
32 0
35 0
36 0
104 1
J28 4
9 1
38 1
39 -4
42 1
J29 4
33 1
54 1
56 1
57 -4
J30 2
0 1
1 -1
J31 2
1 1
2 -1
J32 2
2 1
3 -1
J33 2
3 1
4 -1
J34 2
4 1
5 -1
J35 2
5 1
6 -1
J36 2
6 1
7 -1
J37 2
7 1
8 -1
J38 4
37 -4
38 1
40 1
58 1
J39 5
37 1
38 -4
39 1
41 1
59 1
J40 5
37 1
40 -4
41 1
43 1
64 1
J41 6
38 1
40 1
41 -4
42 1
44 1
65 1
J42 6
13 1
39 1
41 1
42 -4
45 1
66 1
J43 5
40 1
43 -4
44 1
46 1
71 1
J44 6
41 1
43 1
44 -4
45 1
47 1
72 1
J45 6
17 1
42 1
44 1
45 -4
48 1
73 1
J46 5
43 1
46 -4
47 1
49 1
78 1
J47 6
44 1
46 1
47 -4
48 1
50 1
79 1
J48 6
21 1
45 1
47 1
48 -4
51 1
80 1
J49 5
46 1
49 -4
50 1
52 1
85 1
J50 6
47 1
49 1
50 -4
51 1
53 1
86 1
J51 6
25 1
48 1
50 1
51 -4
54 1
87 1
J52 5
49 1
52 -4
53 1
55 1
92 1
J53 6
50 1
52 1
53 -4
54 1
56 1
93 1
J54 6
29 1
51 1
53 1
54 -4
57 1
94 1
J55 4
52 1
55 -4
56 1
99 1
J56 5
53 1
55 1
56 -4
57 1
100 1
J57 1
37 1
J58 1
38 1
J59 1
9 1
J60 2
1 0.0125
10 1
J61 2
1 0.025
11 1
J62 2
1 0.037500000000000006
12 1
J63 1
40 1
J64 1
41 1
J65 1
42 1
J66 1
13 1
J67 2
2 0.0125
14 1
J68 2
2 0.025
15 1
J69 2
2 0.037500000000000006
16 1
J70 1
43 1
J71 1
44 1
J72 1
45 1
J73 1
17 1
J74 2
3 0.0125
18 1
J75 2
3 0.025
19 1
J76 2
3 0.037500000000000006
20 1
J77 1
46 1
J78 1
47 1
J79 1
48 1
J80 1
21 1
J81 2
4 0.0125
22 1
J82 2
4 0.025
23 1
J83 2
4 0.037500000000000006
24 1
J84 1
49 1
J85 1
50 1
J86 1
51 1
J87 1
25 1
J88 2
5 0.0125
26 1
J89 2
5 0.025
27 1
J90 2
5 0.037500000000000006
28 1
J91 1
52 1
J92 1
53 1
J93 1
54 1
J94 1
29 1
J95 2
6 0.0125
30 1
J96 2
6 0.025
31 1
J97 2
6 0.037500000000000006
32 1
J98 1
55 1
J99 1
56 1
J100 1
33 1
J101 2
7 0.0125
34 1
J102 2
7 0.025
35 1
J103 2
7 0.037500000000000006
36 1
G0 24
0 0.0625
1 0.125
2 0.125
3 0.125
4 0.125
5 0.125
6 0.125
7 0.125
8 0.0625
13 125
17 125
21 125
25 125
29 125
41 125
42 125
44 125
45 125
47 125
48 125
50 125
51 125
53 125
54 125
